BAYES
289
2 2 2 2 2 2 2 2 2 2 2 2 2 2 2 2 2 2 2 2 2 2 2 2 2 2 2 2 2 2 2 2 2 2 2 2 2 2 2 2 2 2 2 2 2 2 2 2 2 2 2 2 2 2 2 2 2 2 2 2 2 2 2 2 2 2 2 2 2 2 2 2 2 2 2 2 2 2 2 2 2 2 2 2 2 2 2 2 2 2 2 2 2 2 2 2 2 2 2 2 2 2 2 2 2 2 2 2 2 2 2 2 2 2 2 2 2 2 2 2 2 2 2 2 2 2 2 2 2 2 2 2 2 2 2 2 2 2 2 2 2 2 2 2 2 2 2 2 2 2 2 2 2 2 2 2 2 2 2 2 2 2 2 2 2 2 2 2 2 2 2 2 2 2 2 2 2 2 2 2 2 2 2 2 2 2 2 2 2 2 2 2 2 2 2 2 2 2 2 2 2 2 2 2 2 2 2 2 2 2 2 2 2 2 2 2 2 2 2 2 2 2 2 2 2 2 2 2 2 2 2 2 2 2 2 2 2 2 2 2 2 2 2 2 2 2 2 2 2 2 2 2 2 2 2 2 2 2 2 2 2 2 2 2 2 2 2 2 2 2 2 2 2 2 2 2 2 2 2 2 2 2 2 2 2 2 2 2 2
289
1 0
2 0 1
2 1 2
2 2 3
2 3 4
2 4 5
2 5 6
2 6 7
2 7 8
2 8 9
2 9 10
2 10 11
2 11 12
2 12 13
2 13 14
2 14 15
2 15 16
2 0 17
3 1 17 18
3 2 18 19
3 3 19 20
3 4 20 21
3 5 21 22
3 6 22 23
3 7 23 24
3 8 24 25
3 9 25 26
3 10 26 27
3 11 27 28
3 12 28 29
3 13 29 30
3 14 30 31
3 15 31 32
3 16 32 33
2 17 34
3 18 34 35
3 19 35 36
3 20 36 37
3 21 37 38
3 22 38 39
3 23 39 40
3 24 40 41
3 25 41 42
3 26 42 43
3 27 43 44
3 28 44 45
3 29 45 46
3 30 46 47
3 31 47 48
3 32 48 49
3 33 49 50
2 34 51
3 35 51 52
3 36 52 53
3 37 53 54
3 38 54 55
3 39 55 56
3 40 56 57
3 41 57 58
3 42 58 59
3 43 59 60
3 44 60 61
3 45 61 62
3 46 62 63
3 47 63 64
3 48 64 65
3 49 65 66
3 50 66 67
2 51 68
3 52 68 69
3 53 69 70
3 54 70 71
3 55 71 72
3 56 72 73
3 57 73 74
3 58 74 75
3 59 75 76
3 60 76 77
3 61 77 78
3 62 78 79
3 63 79 80
3 64 80 81
3 65 81 82
3 66 82 83
3 67 83 84
2 68 85
3 69 85 86
3 70 86 87
3 71 87 88
3 72 88 89
3 73 89 90
3 74 90 91
3 75 91 92
3 76 92 93
3 77 93 94
3 78 94 95
3 79 95 96
3 80 96 97
3 81 97 98
3 82 98 99
3 83 99 100
3 84 100 101
2 85 102
3 86 102 103
3 87 103 104
3 88 104 105
3 89 105 106
3 90 106 107
3 91 107 108
3 92 108 109
3 93 109 110
3 94 110 111
3 95 111 112
3 96 112 113
3 97 113 114
3 98 114 115
3 99 115 116
3 100 116 117
3 101 117 118
2 102 119
3 103 119 120
3 104 120 121
3 105 121 122
3 106 122 123
3 107 123 124
3 108 124 125
3 109 125 126
3 110 126 127
3 111 127 128
3 112 128 129
3 113 129 130
3 114 130 131
3 115 131 132
3 116 132 133
3 117 133 134
3 118 134 135
2 119 136
3 120 136 137
3 121 137 138
3 122 138 139
3 123 139 140
3 124 140 141
3 125 141 142
3 126 142 143
3 127 143 144
3 128 144 145
3 129 145 146
3 130 146 147
3 131 147 148
3 132 148 149
3 133 149 150
3 134 150 151
3 135 151 152
2 136 153
3 137 153 154
3 138 154 155
3 139 155 156
3 140 156 157
3 141 157 158
3 142 158 159
3 143 159 160
3 144 160 161
3 145 161 162
3 146 162 163
3 147 163 164
3 148 164 165
3 149 165 166
3 150 166 167
3 151 167 168
3 152 168 169
2 153 170
3 154 170 171
3 155 171 172
3 156 172 173
3 157 173 174
3 158 174 175
3 159 175 176
3 160 176 177
3 161 177 178
3 162 178 179
3 163 179 180
3 164 180 181
3 165 181 182
3 166 182 183
3 167 183 184
3 168 184 185
3 169 185 186
2 170 187
3 171 187 188
3 172 188 189
3 173 189 190
3 174 190 191
3 175 191 192
3 176 192 193
3 177 193 194
3 178 194 195
3 179 195 196
3 180 196 197
3 181 197 198
3 182 198 199
3 183 199 200
3 184 200 201
3 185 201 202
3 186 202 203
2 187 204
3 188 204 205
3 189 205 206
3 190 206 207
3 191 207 208
3 192 208 209
3 193 209 210
3 194 210 211
3 195 211 212
3 196 212 213
3 197 213 214
3 198 214 215
3 199 215 216
3 200 216 217
3 201 217 218
3 202 218 219
3 203 219 220
2 204 221
3 205 221 222
3 206 222 223
3 207 223 224
3 208 224 225
3 209 225 226
3 210 226 227
3 211 227 228
3 212 228 229
3 213 229 230
3 214 230 231
3 215 231 232
3 216 232 233
3 217 233 234
3 218 234 235
3 219 235 236
3 220 236 237
2 221 238
3 222 238 239
3 223 239 240
3 224 240 241
3 225 241 242
3 226 242 243
3 227 243 244
3 228 244 245
3 229 245 246
3 230 246 247
3 231 247 248
3 232 248 249
3 233 249 250
3 234 250 251
3 235 251 252
3 236 252 253
3 237 253 254
2 238 255
3 239 255 256
3 240 256 257
3 241 257 258
3 242 258 259
3 243 259 260
3 244 260 261
3 245 261 262
3 246 262 263
3 247 263 264
3 248 264 265
3 249 265 266
3 250 266 267
3 251 267 268
3 252 268 269
3 253 269 270
3 254 270 271
2 255 272
3 256 272 273
3 257 273 274
3 258 274 275
3 259 275 276
3 260 276 277
3 261 277 278
3 262 278 279
3 263 279 280
3 264 280 281
3 265 281 282
3 266 282 283
3 267 283 284
3 268 284 285
3 269 285 286
3 270 286 287
3 271 287 288

2
0.586951 0.413049
4
0.695288 0.304712 0.498667 0.501333
4
0.0 1.0 1.0 0.0
4
0.283611 0.716389 0.762261 0.237739
4
0.0 1.0 1.0 0.0
4
1.0 0.0 0.0 1.0
4
0.238498 0.761502 0.162004 0.837996
4
0.279047 0.720953 0.186216 0.813784
4
0.0 1.0 1.0 0.0
4
0.510378 0.489622 0.384387 0.615613
4
0.0 1.0 1.0 0.0
4
0.0 1.0 1.0 0.0
4
0.870099 0.129901 0.744016 0.255984
4
0.0 1.0 1.0 0.0
4
1.0 0.0 0.0 1.0
4
1.0 0.0 0.0 1.0
4
0.383672 0.616328 0.518349 0.481651
4
0.0 1.0 1.0 0.0
8
0.0 1.0 0.0 1.0 0.0 1.0 1.0 0.0
8
0.0 1.0 0.0 1.0 1.0 0.0 0.0 1.0
8
0.0 1.0 1.0 0.0 1.0 0.0 0.0 1.0
8
1.0 0.0 0.0 1.0 1.0 0.0 0.0 1.0
8
0.0 1.0 1.0 0.0 1.0 0.0 0.0 1.0
8
0.201721 0.798279 0.614117 0.385883 0.421431 0.578569 0.754008 0.245992
8
0.335168 0.664832 0.160242 0.839758 0.140878 0.859122 0.41091 0.58909
8
1.0 0.0 1.0 0.0 0.0 1.0 1.0 0.0
8
0.627477 0.372523 0.202888 0.797112 0.55513 0.44487 0.332116 0.667884
8
1.0 0.0 0.0 1.0 0.0 1.0 1.0 0.0
8
1.0 0.0 1.0 0.0 0.0 1.0 0.0 1.0
8
0.0 1.0 1.0 0.0 1.0 0.0 0.0 1.0
8
0.419675 0.580325 0.873064 0.126936 0.919037 0.0809629 0.560553 0.439447
8
0.0 1.0 1.0 0.0 1.0 0.0 0.0 1.0
8
0.0 1.0 0.0 1.0 0.0 1.0 1.0 0.0
8
0.0 1.0 0.0 1.0 0.0 1.0 1.0 0.0
4
1.0 0.0 0.0 1.0
8
0.686484 0.313516 0.749725 0.250275 0.731549 0.268451 0.733794 0.266206
8
0.736336 0.263664 0.39522 0.60478 0.404084 0.595916 0.495131 0.504869
8
0.277148 0.722852 0.414168 0.585832 0.375448 0.624552 0.561122 0.438878
8
0.738556 0.261444 0.517963 0.482037 0.423514 0.576486 0.912191 0.0878088
8
0.0 1.0 1.0 0.0 1.0 0.0 0.0 1.0
8
0.909093 0.0909071 0.850021 0.149979 0.908614 0.091386 0.644035 0.355965
8
1.0 0.0 0.0 1.0 0.0 1.0 0.0 1.0
8
0.0 1.0 0.0 1.0 1.0 0.0 1.0 0.0
8
0.274428 0.725572 0.746786 0.253214 0.21428 0.78572 0.649876 0.350124
8
1.0 0.0 0.0 1.0 1.0 0.0 0.0 1.0
8
0.0 1.0 0.0 1.0 0.0 1.0 1.0 0.0
8
0.0 1.0 1.0 0.0 1.0 0.0 1.0 0.0
8
0.0 1.0 1.0 0.0 1.0 0.0 1.0 0.0
8
0.934267 0.0657333 0.977902 0.0220978 0.173825 0.826175 0.3938 0.6062
8
0.0 1.0 1.0 0.0 1.0 0.0 1.0 0.0
8
0.0 1.0 0.0 1.0 1.0 0.0 0.0 1.0
4
0.0 1.0 1.0 0.0
8
1.0 0.0 0.0 1.0 1.0 0.0 0.0 1.0
8
1.0 0.0 1.0 0.0 0.0 1.0 0.0 1.0
8
1.0 0.0 1.0 0.0 0.0 1.0 1.0 0.0
8
0.989086 0.0109139 0.956951 0.0430488 0.14756 0.85244 0.436626 0.563374
8
0.815788 0.184212 0.630951 0.369049 0.119105 0.880895 0.133892 0.866108
8
1.0 0.0 0.0 1.0 1.0 0.0 0.0 1.0
8
0.989683 0.0103168 0.605951 0.394049 0.444082 0.555918 0.504387 0.495613
8
1.0 0.0 0.0 1.0 0.0 1.0 0.0 1.0
8
0.0 1.0 1.0 0.0 0.0 1.0 1.0 0.0
8
0.0 1.0 0.0 1.0 1.0 0.0 0.0 1.0
8
0.400634 0.599366 0.280985 0.719015 0.913503 0.0864967 0.534526 0.465474
8
0.0 1.0 1.0 0.0 0.0 1.0 0.0 1.0
8
1.0 0.0 0.0 1.0 1.0 0.0 0.0 1.0
8
1.0 0.0 0.0 1.0 0.0 1.0 1.0 0.0
8
0.0 1.0 1.0 0.0 0.0 1.0 0.0 1.0
8
1.0 0.0 0.0 1.0 0.0 1.0 0.0 1.0
4
0.158738 0.841262 0.254342 0.745658
8
1.0 0.0 1.0 0.0 0.0 1.0 1.0 0.0
8
0.0 1.0 0.0 1.0 0.0 1.0 1.0 0.0
8
1.0 0.0 0.0 1.0 1.0 0.0 0.0 1.0
8
0.11539 0.88461 0.785506 0.214494 0.0971273 0.902873 0.887408 0.112592
8
1.0 0.0 0.0 1.0 0.0 1.0 0.0 1.0
8
0.0 1.0 1.0 0.0 1.0 0.0 0.0 1.0
8
0.0 1.0 1.0 0.0 0.0 1.0 0.0 1.0
8
0.258304 0.741696 0.0793788 0.920621 0.157374 0.842626 0.644664 0.355336
8
0.0 1.0 0.0 1.0 0.0 1.0 1.0 0.0
8
0.941208 0.0587921 0.797821 0.202179 0.0861745 0.913825 0.828616 0.171384
8
0.0 1.0 1.0 0.0 0.0 1.0 1.0 0.0
8
0.303148 0.696852 0.263714 0.736286 0.759142 0.240858 0.70683 0.29317
8
1.0 0.0 0.0 1.0 1.0 0.0 1.0 0.0
8
0.922114 0.0778858 0.581555 0.418445 0.101691 0.898309 0.566779 0.433221
8
0.370999 0.629001 0.264425 0.735575 0.996436 0.00356377 0.196817 0.803183
8
0.0 1.0 1.0 0.0 1.0 0.0 0.0 1.0
4
0.252159 0.747841 0.0865353 0.913465
8
0.0 1.0 1.0 0.0 0.0 1.0 1.0 0.0
8
1.0 0.0 0.0 1.0 0.0 1.0 0.0 1.0
8
1.0 0.0 1.0 0.0 0.0 1.0 1.0 0.0
8
1.0 0.0 1.0 0.0 0.0 1.0 1.0 0.0
8
0.0 1.0 0.0 1.0 0.0 1.0 1.0 0.0
8
0.190976 0.809024 0.221584 0.778416 0.152609 0.847391 0.277511 0.722489
8
0.462971 0.537029 0.576488 0.423512 0.385457 0.614543 0.0764817 0.923518
8
1.0 0.0 0.0 1.0 0.0 1.0 0.0 1.0
8
1.0 0.0 0.0 1.0 0.0 1.0 1.0 0.0
8
0.0696959 0.930304 0.644375 0.355625 0.816533 0.183467 0.618843 0.381157
8
0.933451 0.0665491 0.444731 0.555269 0.897528 0.102472 0.188394 0.811606
8
0.0 1.0 0.0 1.0 1.0 0.0 0.0 1.0
8
0.0 1.0 0.0 1.0 1.0 0.0 0.0 1.0
8
0.0 1.0 0.0 1.0 0.0 1.0 1.0 0.0
8
1.0 0.0 0.0 1.0 0.0 1.0 1.0 0.0
8
1.0 0.0 0.0 1.0 0.0 1.0 1.0 0.0
4
1.0 0.0 0.0 1.0
8
0.0 1.0 0.0 1.0 1.0 0.0 1.0 0.0
8
1.0 0.0 0.0 1.0 0.0 1.0 0.0 1.0
8
0.179129 0.820871 0.684002 0.315998 0.258179 0.741821 0.613193 0.386807
8
0.0 1.0 1.0 0.0 1.0 0.0 1.0 0.0
8
1.0 0.0 0.0 1.0 1.0 0.0 1.0 0.0
8
1.0 0.0 0.0 1.0 0.0 1.0 1.0 0.0
8
1.0 0.0 1.0 0.0 1.0 0.0 0.0 1.0
8
1.0 0.0 1.0 0.0 0.0 1.0 1.0 0.0
8
0.0 1.0 1.0 0.0 1.0 0.0 0.0 1.0
8
0.893156 0.106844 0.108308 0.891692 0.91369 0.0863097 0.349953 0.650047
8
0.542175 0.457825 0.0116355 0.988365 0.370572 0.629428 0.748401 0.251599
8
0.473851 0.526149 0.348901 0.651099 0.777588 0.222412 0.884895 0.115105
8
1.0 0.0 0.0 1.0 0.0 1.0 1.0 0.0
8
0.0 1.0 0.0 1.0 1.0 0.0 1.0 0.0
8
1.0 0.0 1.0 0.0 0.0 1.0 0.0 1.0
8
1.0 0.0 0.0 1.0 0.0 1.0 1.0 0.0
4
0.0 1.0 1.0 0.0
8
0.264605 0.735395 0.3125 0.6875 0.527221 0.472779 0.212505 0.787495
8
0.876122 0.123878 0.990093 0.0099067 0.671246 0.328754 0.153246 0.846754
8
0.172479 0.827521 0.874714 0.125286 0.732142 0.267858 0.583849 0.416151
8
0.561064 0.438936 0.565171 0.434829 0.665629 0.334371 0.56418 0.43582
8
0.0 1.0 1.0 0.0 1.0 0.0 0.0 1.0
8
1.0 0.0 1.0 0.0 1.0 0.0 0.0 1.0
8
1.0 0.0 0.0 1.0 0.0 1.0 0.0 1.0
8
1.0 0.0 1.0 0.0 1.0 0.0 0.0 1.0
8
0.28734 0.71266 0.970779 0.0292208 0.690341 0.309659 0.0194814 0.980519
8
0.0 1.0 0.0 1.0 1.0 0.0 1.0 0.0
8
0.0 1.0 0.0 1.0 0.0 1.0 1.0 0.0
8
1.0 0.0 1.0 0.0 1.0 0.0 0.0 1.0
8
0.0 1.0 1.0 0.0 1.0 0.0 1.0 0.0
8
0.0 1.0 1.0 0.0 0.0 1.0 0.0 1.0
8
0.0 1.0 1.0 0.0 1.0 0.0 0.0 1.0
8
1.0 0.0 0.0 1.0 1.0 0.0 1.0 0.0
4
0.0325224 0.967478 0.209355 0.790645
8
0.0 1.0 1.0 0.0 0.0 1.0 1.0 0.0
8
1.0 0.0 1.0 0.0 0.0 1.0 0.0 1.0
8
1.0 0.0 0.0 1.0 1.0 0.0 1.0 0.0
8
1.0 0.0 0.0 1.0 0.0 1.0 1.0 0.0
8
1.0 0.0 1.0 0.0 1.0 0.0 0.0 1.0
8
0.0 1.0 0.0 1.0 1.0 0.0 1.0 0.0
8
0.257262 0.742738 0.0653353 0.934665 0.349631 0.650369 0.0557874 0.944213
8
1.0 0.0 0.0 1.0 1.0 0.0 0.0 1.0
8
0.0 1.0 0.0 1.0 1.0 0.0 0.0 1.0
8
0.0 1.0 1.0 0.0 1.0 0.0 1.0 0.0
8
0.446786 0.553214 0.0642973 0.935703 0.392482 0.607518 0.421994 0.578006
8
1.0 0.0 0.0 1.0 1.0 0.0 0.0 1.0
8
0.0 1.0 1.0 0.0 1.0 0.0 1.0 0.0
8
0.0 1.0 1.0 0.0 0.0 1.0 0.0 1.0
8
0.0 1.0 1.0 0.0 0.0 1.0 0.0 1.0
8
0.827799 0.172201 0.799134 0.200866 0.886712 0.113288 0.132922 0.867078
4
1.0 0.0 0.0 1.0
8
1.0 0.0 0.0 1.0 1.0 0.0 1.0 0.0
8
1.0 0.0 0.0 1.0 0.0 1.0 0.0 1.0
8
1.0 0.0 1.0 0.0 0.0 1.0 0.0 1.0
8
0.0 1.0 0.0 1.0 1.0 0.0 0.0 1.0
8
0.0 1.0 1.0 0.0 0.0 1.0 1.0 0.0
8
0.893549 0.106451 0.416739 0.583261 0.322263 0.677737 0.676669 0.323331
8
0.818919 0.181081 0.852271 0.147729 0.998148 0.00185227 0.00490713 0.995093
8
0.375323 0.624677 0.537785 0.462215 0.50391 0.49609 0.125068 0.874932
8
1.0 0.0 0.0 1.0 0.0 1.0 0.0 1.0
8
0.767651 0.232349 0.862575 0.137425 0.911107 0.0888926 0.335604 0.664396
8
0.0 1.0 0.0 1.0 1.0 0.0 1.0 0.0
8
0.0 1.0 1.0 0.0 0.0 1.0 0.0 1.0
8
1.0 0.0 1.0 0.0 0.0 1.0 1.0 0.0
8
0.0 1.0 1.0 0.0 0.0 1.0 1.0 0.0
8
1.0 0.0 0.0 1.0 1.0 0.0 1.0 0.0
8
1.0 0.0 0.0 1.0 0.0 1.0 1.0 0.0
4
0.347502 0.652498 0.291411 0.708589
8
0.0 1.0 0.0 1.0 0.0 1.0 1.0 0.0
8
1.0 0.0 1.0 0.0 0.0 1.0 0.0 1.0
8
1.0 0.0 1.0 0.0 0.0 1.0 1.0 0.0
8
0.0 1.0 0.0 1.0 1.0 0.0 1.0 0.0
8
0.0 1.0 1.0 0.0 0.0 1.0 1.0 0.0
8
0.0432531 0.956747 0.0550115 0.944988 0.830796 0.169204 0.390755 0.609245
8
1.0 0.0 0.0 1.0 0.0 1.0 1.0 0.0
8
1.0 0.0 0.0 1.0 0.0 1.0 0.0 1.0
8
1.0 0.0 1.0 0.0 1.0 0.0 0.0 1.0
8
0.00146049 0.99854 0.220151 0.779849 0.760607 0.239393 0.287157 0.712843
8
0.0 1.0 0.0 1.0 0.0 1.0 1.0 0.0
8
0.0 1.0 0.0 1.0 1.0 0.0 0.0 1.0
8
0.0 1.0 0.0 1.0 1.0 0.0 1.0 0.0
8
1.0 0.0 0.0 1.0 1.0 0.0 0.0 1.0
8
0.213878 0.786122 0.880286 0.119714 0.429389 0.570611 0.537468 0.462532
8
0.219195 0.780805 0.538929 0.461071 0.183884 0.816116 0.979803 0.0201972
4
0.700419 0.299581 0.857959 0.142041
8
0.0 1.0 1.0 0.0 1.0 0.0 1.0 0.0
8
0.721922 0.278078 0.942879 0.0571205 0.341051 0.658949 0.104936 0.895064
8
0.0 1.0 1.0 0.0 0.0 1.0 1.0 0.0
8
1.0 0.0 1.0 0.0 0.0 1.0 0.0 1.0
8
0.0 1.0 1.0 0.0 1.0 0.0 0.0 1.0
8
0.0 1.0 1.0 0.0 0.0 1.0 0.0 1.0
8
0.0 1.0 1.0 0.0 0.0 1.0 1.0 0.0
8
1.0 0.0 0.0 1.0 1.0 0.0 1.0 0.0
8
1.0 0.0 1.0 0.0 0.0 1.0 1.0 0.0
8
1.0 0.0 0.0 1.0 0.0 1.0 1.0 0.0
8
0.0 1.0 1.0 0.0 0.0 1.0 0.0 1.0
8
0.240668 0.759332 0.538743 0.461257 0.697596 0.302404 0.377909 0.622091
8
0.0 1.0 0.0 1.0 1.0 0.0 0.0 1.0
8
0.11107 0.88893 0.976009 0.0239911 0.106577 0.893423 0.885667 0.114333
8
1.0 0.0 1.0 0.0 0.0 1.0 1.0 0.0
8
0.0 1.0 0.0 1.0 0.0 1.0 1.0 0.0
4
0.0 1.0 1.0 0.0
8
1.0 0.0 0.0 1.0 0.0 1.0 0.0 1.0
8
0.0 1.0 0.0 1.0 0.0 1.0 1.0 0.0
8
0.0 1.0 0.0 1.0 1.0 0.0 0.0 1.0
8
0.0 1.0 1.0 0.0 1.0 0.0 1.0 0.0
8
0.967061 0.0329385 0.195853 0.804147 0.548409 0.451591 0.520253 0.479747
8
0.550879 0.449121 0.335149 0.664851 0.123713 0.876287 0.938024 0.0619758
8
0.0 1.0 0.0 1.0 1.0 0.0 0.0 1.0
8
0.0 1.0 0.0 1.0 1.0 0.0 0.0 1.0
8
0.0 1.0 0.0 1.0 1.0 0.0 1.0 0.0
8
1.0 0.0 0.0 1.0 1.0 0.0 1.0 0.0
8
1.0 0.0 1.0 0.0 1.0 0.0 0.0 1.0
8
1.0 0.0 0.0 1.0 1.0 0.0 0.0 1.0
8
0.0 1.0 0.0 1.0 0.0 1.0 1.0 0.0
8
1.0 0.0 0.0 1.0 1.0 0.0 0.0 1.0
8
0.989831 0.0101692 0.882194 0.117806 0.120591 0.879409 0.390685 0.609315
8
0.524629 0.475371 0.172527 0.827473 0.768059 0.231941 0.111274 0.888726
4
0.0 1.0 1.0 0.0
8
0.0 1.0 1.0 0.0 1.0 0.0 0.0 1.0
8
1.0 0.0 1.0 0.0 0.0 1.0 0.0 1.0
8
0.0 1.0 0.0 1.0 1.0 0.0 1.0 0.0
8
1.0 0.0 1.0 0.0 0.0 1.0 1.0 0.0
8
1.0 0.0 0.0 1.0 0.0 1.0 1.0 0.0
8
0.0270765 0.972923 0.601805 0.398195 0.930288 0.0697123 0.2481 0.7519
8
1.0 0.0 0.0 1.0 1.0 0.0 0.0 1.0
8
1.0 0.0 1.0 0.0 0.0 1.0 1.0 0.0
8
1.0 0.0 1.0 0.0 0.0 1.0 0.0 1.0
8
0.0 1.0 1.0 0.0 0.0 1.0 0.0 1.0
8
0.0 1.0 1.0 0.0 1.0 0.0 0.0 1.0
8
1.0 0.0 1.0 0.0 0.0 1.0 0.0 1.0
8
0.0 1.0 0.0 1.0 0.0 1.0 1.0 0.0
8
1.0 0.0 0.0 1.0 0.0 1.0 1.0 0.0
8
0.0 1.0 0.0 1.0 1.0 0.0 0.0 1.0
8
1.0 0.0 0.0 1.0 0.0 1.0 0.0 1.0
4
0.0 1.0 1.0 0.0
8
1.0 0.0 0.0 1.0 0.0 1.0 0.0 1.0
8
0.0 1.0 1.0 0.0 0.0 1.0 1.0 0.0
8
0.0 1.0 0.0 1.0 1.0 0.0 1.0 0.0
8
0.885498 0.114502 0.635448 0.364552 0.0623409 0.937659 0.418499 0.581501
8
0.154916 0.845084 0.997088 0.00291163 0.0332003 0.9668 0.734143 0.265857
8
0.0 1.0 1.0 0.0 1.0 0.0 0.0 1.0
8
0.0 1.0 1.0 0.0 0.0 1.0 0.0 1.0
8
1.0 0.0 1.0 0.0 0.0 1.0 1.0 0.0
8
1.0 0.0 0.0 1.0 0.0 1.0 1.0 0.0
8
1.0 0.0 0.0 1.0 0.0 1.0 0.0 1.0
8
1.0 0.0 1.0 0.0 0.0 1.0 1.0 0.0
8
0.0 1.0 1.0 0.0 0.0 1.0 1.0 0.0
8
0.0 1.0 0.0 1.0 1.0 0.0 0.0 1.0
8
1.0 0.0 1.0 0.0 0.0 1.0 1.0 0.0
8
0.0 1.0 1.0 0.0 0.0 1.0 1.0 0.0
8
1.0 0.0 1.0 0.0 0.0 1.0 1.0 0.0
4
1.0 0.0 0.0 1.0
8
1.0 0.0 0.0 1.0 0.0 1.0 0.0 1.0
8
0.0 1.0 1.0 0.0 1.0 0.0 0.0 1.0
8
0.0 1.0 0.0 1.0 1.0 0.0 0.0 1.0
8
0.0 1.0 1.0 0.0 1.0 0.0 0.0 1.0
8
1.0 0.0 1.0 0.0 0.0 1.0 0.0 1.0
8
0.787084 0.212916 0.135583 0.864417 0.0569665 0.943033 0.0914073 0.908593
8
0.0 1.0 1.0 0.0 1.0 0.0 0.0 1.0
8
0.729982 0.270018 0.488213 0.511787 0.671169 0.328831 0.27299 0.72701
8
0.0 1.0 0.0 1.0 1.0 0.0 0.0 1.0
8
0.280784 0.719216 0.334591 0.665409 0.0499182 0.950082 0.587293 0.412707
8
0.183204 0.816796 0.275978 0.724022 0.283914 0.716086 0.966778 0.0332225
8
0.2388 0.7612 0.753861 0.246139 0.0224908 0.977509 0.295767 0.704233
8
0.440054 0.559946 0.892974 0.107026 0.575013 0.424987 0.631065 0.368935
8
1.0 0.0 0.0 1.0 0.0 1.0 0.0 1.0
8
1.0 0.0 0.0 1.0 1.0 0.0 0.0 1.0
8
1.0 0.0 0.0 1.0 0.0 1.0 1.0 0.0
4
1.0 0.0 0.0 1.0
8
0.0 1.0 0.0 1.0 0.0 1.0 1.0 0.0
8
1.0 0.0 0.0 1.0 1.0 0.0 1.0 0.0
8
0.288711 0.711289 0.159334 0.840666 0.600589 0.399411 0.402778 0.597222
8
0.0 1.0 0.0 1.0 1.0 0.0 0.0 1.0
8
0.00382193 0.996178 0.531816 0.468184 0.299428 0.700572 0.256453 0.743547
8
1.0 0.0 0.0 1.0 0.0 1.0 1.0 0.0
8
0.0 1.0 0.0 1.0 0.0 1.0 1.0 0.0
8
1.0 0.0 0.0 1.0 0.0 1.0 0.0 1.0
8
0.0 1.0 1.0 0.0 1.0 0.0 0.0 1.0
8
0.0 1.0 0.0 1.0 1.0 0.0 1.0 0.0
8
0.0 1.0 0.0 1.0 0.0 1.0 1.0 0.0
8
1.0 0.0 1.0 0.0 0.0 1.0 1.0 0.0
8
0.356231 0.643769 0.0741377 0.925862 0.0872365 0.912764 0.512152 0.487848
8
1.0 0.0 1.0 0.0 0.0 1.0 1.0 0.0
8
0.684718 0.315282 0.313638 0.686362 0.525047 0.474953 0.311672 0.688328
8
0.873606 0.126394 0.900262 0.0997381 0.257292 0.742708 0.153861 0.846139